(set-info :smt-lib-version 2.6)
(set-logic QF_NIA)
(set-info :source |
Generated by: Cristina Borralleras, Daniel Larraz, Albert Oliveras, Enric Rodriguez-Carbonell, Albert Rubio
Generated on: 2017-04-27
Generator: VeryMax
Application: Termination proving
Target solver: barcelogic
|)
(set-info :license "https://creativecommons.org/licenses/by/4.0/")
(set-info :category "industrial")
(set-info :status unsat)
(declare-fun Nl4arg11 () Int)
(declare-fun Nl4arg21 () Int)
(declare-fun Nl4arg31 () Int)
(declare-fun Nl4arg41 () Int)
(declare-fun Nl4arg51 () Int)
(declare-fun Nl4arg61 () Int)
(declare-fun Nl4arg71 () Int)
(declare-fun Nl4arg81 () Int)
(declare-fun Nl4arg91 () Int)
(declare-fun Nl4arg101 () Int)
(declare-fun Nl4arg111 () Int)
(declare-fun Nl4arg121 () Int)
(declare-fun Nl4arg131 () Int)
(declare-fun lam0n0 () Int)
(declare-fun lam0n1 () Int)
(declare-fun lam0n2 () Int)
(declare-fun lam0n3 () Int)
(declare-fun lam0n4 () Int)
(declare-fun lam0n5 () Int)
(declare-fun lam0n6 () Int)
(declare-fun lam0n7 () Int)
(declare-fun lam0n8 () Int)
(declare-fun lam0n9 () Int)
(declare-fun lam0n10 () Int)
(declare-fun lam0n11 () Int)
(declare-fun Nl4CT1 () Int)
(declare-fun lam1n0 () Int)
(declare-fun lam1n1 () Int)
(declare-fun lam1n2 () Int)
(declare-fun lam1n3 () Int)
(declare-fun lam1n4 () Int)
(declare-fun lam1n5 () Int)
(declare-fun lam1n6 () Int)
(declare-fun lam1n7 () Int)
(declare-fun lam1n8 () Int)
(declare-fun lam1n9 () Int)
(declare-fun lam1n10 () Int)
(declare-fun lam1n11 () Int)
(declare-fun lam2n0 () Int)
(declare-fun lam2n1 () Int)
(declare-fun lam2n2 () Int)
(declare-fun lam2n3 () Int)
(declare-fun lam2n4 () Int)
(assert ( and ( <= ( - 2 ) Nl4arg11 ) ( <= Nl4arg11 2 ) ( <= ( - 2 ) Nl4arg21 ) ( <= Nl4arg21 2 ) ( <= ( - 2 ) Nl4arg31 ) ( <= Nl4arg31 2 ) ( <= ( - 2 ) Nl4arg41 ) ( <= Nl4arg41 2 ) ( <= ( - 2 ) Nl4arg51 ) ( <= Nl4arg51 2 ) ( <= ( - 2 ) Nl4arg61 ) ( <= Nl4arg61 2 ) ( <= ( - 2 ) Nl4arg71 ) ( <= Nl4arg71 2 ) ( <= ( - 2 ) Nl4arg81 ) ( <= Nl4arg81 2 ) ( <= ( - 2 ) Nl4arg91 ) ( <= Nl4arg91 2 ) ( <= ( - 2 ) Nl4arg101 ) ( <= Nl4arg101 2 ) ( <= ( - 2 ) Nl4arg111 ) ( <= Nl4arg111 2 ) ( <= ( - 2 ) Nl4arg121 ) ( <= Nl4arg121 2 ) ( <= ( - 2 ) Nl4arg131 ) ( <= Nl4arg131 2 ) ))
(assert ( or ( and ( >= lam0n0 0 ) ( >= lam0n1 0 ) ( >= lam0n2 0 ) ( >= lam0n3 0 ) ( >= lam0n4 0 ) ( >= lam0n5 0 ) ( >= lam0n6 0 ) ( >= lam0n7 0 ) ( >= lam0n8 0 ) ( >= lam0n9 0 ) ( >= lam0n10 0 ) ( >= lam0n11 0 ) ( > ( + ( * 1 lam0n0 ) ( * 3 lam0n5 ) ( * 3 lam0n6 ) ( * 2 lam0n7 ) ( * 2 lam0n8 ) ( * 4 lam0n9 ) ( * 4 lam0n10 ) ( * Nl4CT1 lam0n11 ) ( - 1 ) ) 0 ) ( = ( + ( * ( - 1 ) lam0n5 ) ( * ( - 1 ) lam0n6 ) ( * ( - 1 ) lam0n9 ) ( * Nl4arg11 lam0n11 ) ) 0 ) ( = ( + ( * ( - 1 ) lam0n0 ) ( * Nl4arg21 lam0n11 ) ) 0 ) ( = ( + ( * ( - 1 ) lam0n1 ) ( * ( - 1 ) lam0n7 ) ( * Nl4arg31 lam0n11 ) ) 0 ) ( = ( + ( * ( - 1 ) lam0n2 ) ( * 1 lam0n7 ) ( * Nl4arg41 lam0n11 ) ) 0 ) ( = ( + ( * ( - 1 ) lam0n8 ) ( * Nl4arg51 lam0n11 ) ) 0 ) ( = ( + ( * 1 lam0n5 ) ( * Nl4arg61 lam0n11 ) ) 0 ) ( = ( + ( * 1 lam0n6 ) ( * Nl4arg71 lam0n11 ) ) 0 ) ( = ( * Nl4arg81 lam0n11 ) 0 ) ( = ( * Nl4arg91 lam0n11 ) 0 ) ( = ( * Nl4arg101 lam0n11 ) 0 ) ( = ( * Nl4arg111 lam0n11 ) 0 ) ( = ( * Nl4arg121 lam0n11 ) 0 ) ( = ( * Nl4arg131 lam0n11 ) 0 ) ( = ( * ( - 1 ) lam0n10 ) 0 ) ( = ( * ( - 1 ) lam0n3 ) 0 ) ( = ( * ( - 1 ) lam0n4 ) 0 ) ) ( and ( >= lam1n0 0 ) ( >= lam1n1 0 ) ( >= lam1n2 0 ) ( >= lam1n3 0 ) ( >= lam1n4 0 ) ( >= lam1n5 0 ) ( >= lam1n6 0 ) ( >= lam1n7 0 ) ( >= lam1n8 0 ) ( >= lam1n9 0 ) ( >= lam1n10 0 ) ( >= lam1n11 0 ) ( > ( + ( * 1 lam1n0 ) ( * 3 lam1n5 ) ( * 3 lam1n6 ) ( * 2 lam1n7 ) ( * 2 lam1n8 ) ( * 4 lam1n9 ) ( * 4 lam1n10 ) ( * Nl4CT1 lam1n11 ) ( - 1 ( + ( + ( + ( + ( + ( + ( + ( + ( + ( + ( + ( + Nl4CT1 ( * Nl4arg11 0 ) ) ( * Nl4arg21 ( - 1 ) ) ) ( * Nl4arg41 2 ) ) ( * Nl4arg51 0 ) ) ( * Nl4arg61 0 ) ) ( * Nl4arg71 0 ) ) ( * Nl4arg81 0 ) ) ( * Nl4arg91 0 ) ) ( * Nl4arg101 0 ) ) ( * Nl4arg111 0 ) ) ( * Nl4arg121 0 ) ) ( * Nl4arg131 0 ) ) ) ) 0 ) ( = ( + ( * ( - 1 ) lam1n5 ) ( * ( - 1 ) lam1n6 ) ( * ( - 1 ) lam1n9 ) ( * Nl4arg11 lam1n11 ) ) 0 ) ( = ( + ( * ( - 1 ) lam1n0 ) ( * Nl4arg21 lam1n11 ) ( - ( + 0 ( * Nl4arg21 1 ) ) ) ) 0 ) ( = ( + ( * ( - 1 ) lam1n1 ) ( * ( - 1 ) lam1n7 ) ( * Nl4arg31 lam1n11 ) ( - ( + 0 Nl4arg31 ) ) ) 0 ) ( = ( + ( * ( - 1 ) lam1n2 ) ( * 1 lam1n7 ) ( * Nl4arg41 lam1n11 ) ( - ( + 0 ( * Nl4arg41 1 ) ) ) ) 0 ) ( = ( + ( * ( - 1 ) lam1n8 ) ( * Nl4arg51 lam1n11 ) ) 0 ) ( = ( + ( * 1 lam1n5 ) ( * Nl4arg61 lam1n11 ) ) 0 ) ( = ( + ( * 1 lam1n6 ) ( * Nl4arg71 lam1n11 ) ) 0 ) ( = ( * Nl4arg81 lam1n11 ) 0 ) ( = ( * Nl4arg91 lam1n11 ) 0 ) ( = ( * Nl4arg101 lam1n11 ) 0 ) ( = ( * Nl4arg111 lam1n11 ) 0 ) ( = ( * Nl4arg121 lam1n11 ) 0 ) ( = ( * Nl4arg131 lam1n11 ) 0 ) ( = ( + ( * ( - 1 ) lam1n10 ) ( - ( + 0 ( * Nl4arg11 1 ) ) ) ) 0 ) ( = ( - ( + 0 ( * Nl4arg51 1 ) ) ) 0 ) ( = ( - ( + 0 ( * Nl4arg61 1 ) ) ) 0 ) ( = ( - ( + 0 ( * Nl4arg71 1 ) ) ) 0 ) ( = ( - ( + 0 ( * Nl4arg81 1 ) ) ) 0 ) ( = ( - ( + 0 ( * Nl4arg91 1 ) ) ) 0 ) ( = ( - ( + 0 ( * Nl4arg101 1 ) ) ) 0 ) ( = ( - ( + 0 ( * Nl4arg111 1 ) ) ) 0 ) ( = ( - ( + 0 ( * Nl4arg121 1 ) ) ) 0 ) ( = ( - ( + 0 ( * Nl4arg131 1 ) ) ) 0 ) ( = ( * ( - 1 ) lam1n3 ) 0 ) ( = ( * ( - 1 ) lam1n4 ) 0 ) ) ))
(assert ( and ( >= lam2n0 0 ) ( >= lam2n1 0 ) ( >= lam2n2 0 ) ( >= lam2n3 0 ) ( >= lam2n4 0 ) ( > ( + ( * 1 lam2n0 ) ( * 1 lam2n1 ) ( * ( - 14 ) lam2n3 ) ( * 15 lam2n4 ) ( - 1 ( + ( + ( + ( + ( + ( + ( + ( + ( + ( + ( + ( + ( + Nl4CT1 ( * Nl4arg11 0 ) ) ( * Nl4arg21 0 ) ) ( * Nl4arg31 0 ) ) ( * Nl4arg41 1 ) ) ( * Nl4arg51 16 ) ) ( * Nl4arg61 0 ) ) ( * Nl4arg71 12 ) ) ( * Nl4arg81 0 ) ) ( * Nl4arg91 0 ) ) ( * Nl4arg101 0 ) ) ( * Nl4arg111 0 ) ) ( * Nl4arg121 0 ) ) ( * Nl4arg131 0 ) ) ) ) 0 ) ( = ( + ( * 1 lam2n3 ) ( * ( - 1 ) lam2n4 ) ( - ( + 0 ( * Nl4arg11 1 ) ) ) ) 0 ) ( = ( + ( * ( - 1 ) lam2n2 ) ( - ( + 0 ( * Nl4arg21 1 ) ) ) ) 0 ) ( = ( - ( + 0 ( * Nl4arg81 1 ) ) ) 0 ) ( = ( - ( + 0 ( * Nl4arg91 1 ) ) ) 0 ) ( = ( - ( + 0 ( * Nl4arg101 1 ) ) ) 0 ) ( = ( - ( + 0 ( * Nl4arg111 1 ) ) ) 0 ) ( = ( - ( + 0 ( * Nl4arg121 1 ) ) ) 0 ) ( = ( - ( + 0 ( * Nl4arg131 1 ) ) ) 0 ) ( = ( + ( * ( - 1 ) lam2n0 ) ( * ( - 1 ) lam2n3 ) ) 0 ) ( = ( + ( * ( - 1 ) lam2n1 ) ( - ( + 0 ( * Nl4arg31 1 ) ) ) ) 0 ) ))
(assert ( and ( >= lam0n0 0 ) ( >= lam0n1 0 ) ( >= lam0n2 0 ) ( >= lam0n3 0 ) ( >= lam0n4 0 ) ( >= lam0n5 0 ) ( >= lam0n6 0 ) ( >= lam0n7 0 ) ( >= lam0n8 0 ) ( >= lam0n9 0 ) ( >= lam0n10 0 ) ( >= lam0n11 0 ) ( > ( + ( * 1 lam0n0 ) ( * 3 lam0n5 ) ( * 3 lam0n6 ) ( * 2 lam0n7 ) ( * 2 lam0n8 ) ( * 4 lam0n9 ) ( * 4 lam0n10 ) ( * Nl4CT1 lam0n11 ) ( - 1 ) ) 0 ) ( = ( + ( * ( - 1 ) lam0n5 ) ( * ( - 1 ) lam0n6 ) ( * ( - 1 ) lam0n9 ) ( * Nl4arg11 lam0n11 ) ) 0 ) ( = ( + ( * ( - 1 ) lam0n0 ) ( * Nl4arg21 lam0n11 ) ) 0 ) ( = ( + ( * ( - 1 ) lam0n1 ) ( * ( - 1 ) lam0n7 ) ( * Nl4arg31 lam0n11 ) ) 0 ) ( = ( + ( * ( - 1 ) lam0n2 ) ( * 1 lam0n7 ) ( * Nl4arg41 lam0n11 ) ) 0 ) ( = ( + ( * ( - 1 ) lam0n8 ) ( * Nl4arg51 lam0n11 ) ) 0 ) ( = ( + ( * 1 lam0n5 ) ( * Nl4arg61 lam0n11 ) ) 0 ) ( = ( + ( * 1 lam0n6 ) ( * Nl4arg71 lam0n11 ) ) 0 ) ( = ( * Nl4arg81 lam0n11 ) 0 ) ( = ( * Nl4arg91 lam0n11 ) 0 ) ( = ( * Nl4arg101 lam0n11 ) 0 ) ( = ( * Nl4arg111 lam0n11 ) 0 ) ( = ( * Nl4arg121 lam0n11 ) 0 ) ( = ( * Nl4arg131 lam0n11 ) 0 ) ( = ( * ( - 1 ) lam0n10 ) 0 ) ( = ( * ( - 1 ) lam0n3 ) 0 ) ( = ( * ( - 1 ) lam0n4 ) 0 ) ))
(check-sat)
(exit)
